robust/generate/spp_dkp_Lefebvre_et_al_2026/src/shortest_path_3_7.lp
\ Model sp_3_7
\ LP format - for model browsing. Use MPS format to capture full model detail.
\ Signature: 0xa4415f961933896d
Minimize
  53.25 y[0,1] + 61.59 y[0,2] + 53.25 y[1,0] + 82.73 y[1,2] + 61.59 y[2,0]
   + 82.73 y[2,1] + 5.325 r[0,1] + 6.159 r[0,2] + 5.325 r[1,0]
   + 8.273 r[1,2] + 6.159 r[2,0] + 8.273 r[2,1]
Subject To
 flow_cons_inner_nodes[0]: - y[0,1] - y[0,2] + y[1,0] + y[2,0] = 0
 flow_cons_source: - y[0,1] + y[1,0] + y[1,2] - y[2,1] = 1
 flow_cons_target: y[0,2] + y[1,2] - y[2,0] - y[2,1] = 1
 primal_lower: - 3.46 y[0,1] - 2.84 y[0,2] - 10.65 y[1,0] - 10.25 y[1,2]
   - 7.86 y[2,0] - 6.52 y[2,1] + 69 u[0,1] + 2 u[0,2] + 66 u[1,0]
   + 18 u[1,2] + 4 u[2,0] + 68 u[2,1] <= 69
 mccormick1[0,1]: - u[0,1] + r[0,1] <= 0
 mccormick1[0,2]: - u[0,2] + r[0,2] <= 0
 mccormick1[1,0]: - u[1,0] + r[1,0] <= 0
 mccormick1[1,2]: - u[1,2] + r[1,2] <= 0
 mccormick1[2,0]: - u[2,0] + r[2,0] <= 0
 mccormick1[2,1]: - u[2,1] + r[2,1] <= 0
 mccormick2[0,1]: - y[0,1] + r[0,1] <= 0
 mccormick2[0,2]: - y[0,2] + r[0,2] <= 0
 mccormick2[1,0]: - y[1,0] + r[1,0] <= 0
 mccormick2[1,2]: - y[1,2] + r[1,2] <= 0
 mccormick2[2,0]: - y[2,0] + r[2,0] <= 0
 mccormick2[2,1]: - y[2,1] + r[2,1] <= 0
 mccormick3[0,1]: - y[0,1] - u[0,1] + r[0,1] >= -1
 mccormick3[0,2]: - y[0,2] - u[0,2] + r[0,2] >= -1
 mccormick3[1,0]: - y[1,0] - u[1,0] + r[1,0] >= -1
 mccormick3[1,2]: - y[1,2] - u[1,2] + r[1,2] >= -1
 mccormick3[2,0]: - y[2,0] - u[2,0] + r[2,0] >= -1
 mccormick3[2,1]: - y[2,1] - u[2,1] + r[2,1] >= -1
Bounds
Binaries
 y[0,1] y[0,2] y[1,0] y[1,2] y[2,0] y[2,1] u[0,1] u[0,2] u[1,0] u[1,2]
 u[2,0] u[2,1] r[0,1] r[0,2] r[1,0] r[1,2] r[2,0] r[2,1]
End
