robust/generate/spp_dkp_Lefebvre_et_al_2026/src/shortest_path_3_7.mps
* Signature: 0xa4415f961933896d
NAME sp_3_7
ROWS
 N  OBJ
 E  flow_cons_inner_nodes[0]
 E  flow_cons_source
 E  flow_cons_target
 L  primal_lower
 L  mccormick1[0,1]
 L  mccormick1[0,2]
 L  mccormick1[1,0]
 L  mccormick1[1,2]
 L  mccormick1[2,0]
 L  mccormick1[2,1]
 L  mccormick2[0,1]
 L  mccormick2[0,2]
 L  mccormick2[1,0]
 L  mccormick2[1,2]
 L  mccormick2[2,0]
 L  mccormick2[2,1]
 G  mccormick3[0,1]
 G  mccormick3[0,2]
 G  mccormick3[1,0]
 G  mccormick3[1,2]
 G  mccormick3[2,0]
 G  mccormick3[2,1]
COLUMNS
    MARKER    'MARKER'                 'INTORG'
    y[0,1]    OBJ       53.25
    y[0,1]    flow_cons_inner_nodes[0]  -1
    y[0,1]    flow_cons_source  -1
    y[0,1]    primal_lower  -3.46
    y[0,1]    mccormick2[0,1]  -1
    y[0,1]    mccormick3[0,1]  -1
    y[0,2]    OBJ       61.59
    y[0,2]    flow_cons_inner_nodes[0]  -1
    y[0,2]    flow_cons_target  1
    y[0,2]    primal_lower  -2.84
    y[0,2]    mccormick2[0,2]  -1
    y[0,2]    mccormick3[0,2]  -1
    y[1,0]    OBJ       53.25
    y[1,0]    flow_cons_inner_nodes[0]  1
    y[1,0]    flow_cons_source  1
    y[1,0]    primal_lower  -10.65
    y[1,0]    mccormick2[1,0]  -1
    y[1,0]    mccormick3[1,0]  -1
    y[1,2]    OBJ       82.73
    y[1,2]    flow_cons_source  1
    y[1,2]    flow_cons_target  1
    y[1,2]    primal_lower  -10.25
    y[1,2]    mccormick2[1,2]  -1
    y[1,2]    mccormick3[1,2]  -1
    y[2,0]    OBJ       61.59
    y[2,0]    flow_cons_inner_nodes[0]  1
    y[2,0]    flow_cons_target  -1
    y[2,0]    primal_lower  -7.86
    y[2,0]    mccormick2[2,0]  -1
    y[2,0]    mccormick3[2,0]  -1
    y[2,1]    OBJ       82.73
    y[2,1]    flow_cons_source  -1
    y[2,1]    flow_cons_target  -1
    y[2,1]    primal_lower  -6.52
    y[2,1]    mccormick2[2,1]  -1
    y[2,1]    mccormick3[2,1]  -1
    u[0,1]    primal_lower  69
    u[0,1]    mccormick1[0,1]  -1
    u[0,1]    mccormick3[0,1]  -1
    u[0,2]    primal_lower  2
    u[0,2]    mccormick1[0,2]  -1
    u[0,2]    mccormick3[0,2]  -1
    u[1,0]    primal_lower  66
    u[1,0]    mccormick1[1,0]  -1
    u[1,0]    mccormick3[1,0]  -1
    u[1,2]    primal_lower  18
    u[1,2]    mccormick1[1,2]  -1
    u[1,2]    mccormick3[1,2]  -1
    u[2,0]    primal_lower  4
    u[2,0]    mccormick1[2,0]  -1
    u[2,0]    mccormick3[2,0]  -1
    u[2,1]    primal_lower  68
    u[2,1]    mccormick1[2,1]  -1
    u[2,1]    mccormick3[2,1]  -1
    r[0,1]    OBJ       5.325
    r[0,1]    mccormick1[0,1]  1
    r[0,1]    mccormick2[0,1]  1
    r[0,1]    mccormick3[0,1]  1
    r[0,2]    OBJ       6.1590000000000007e+00
    r[0,2]    mccormick1[0,2]  1
    r[0,2]    mccormick2[0,2]  1
    r[0,2]    mccormick3[0,2]  1
    r[1,0]    OBJ       5.325
    r[1,0]    mccormick1[1,0]  1
    r[1,0]    mccormick2[1,0]  1
    r[1,0]    mccormick3[1,0]  1
    r[1,2]    OBJ       8.2730000000000015e+00
    r[1,2]    mccormick1[1,2]  1
    r[1,2]    mccormick2[1,2]  1
    r[1,2]    mccormick3[1,2]  1
    r[2,0]    OBJ       6.1590000000000007e+00
    r[2,0]    mccormick1[2,0]  1
    r[2,0]    mccormick2[2,0]  1
    r[2,0]    mccormick3[2,0]  1
    r[2,1]    OBJ       8.2730000000000015e+00
    r[2,1]    mccormick1[2,1]  1
    r[2,1]    mccormick2[2,1]  1
    r[2,1]    mccormick3[2,1]  1
    MARKER    'MARKER'                 'INTEND'
RHS
    RHS1      flow_cons_source  1
    RHS1      flow_cons_target  1
    RHS1      primal_lower  69
    RHS1      mccormick3[0,1]  -1
    RHS1      mccormick3[0,2]  -1
    RHS1      mccormick3[1,0]  -1
    RHS1      mccormick3[1,2]  -1
    RHS1      mccormick3[2,0]  -1
    RHS1      mccormick3[2,1]  -1
BOUNDS
 BV BND1      y[0,1]  
 BV BND1      y[0,2]  
 BV BND1      y[1,0]  
 BV BND1      y[1,2]  
 BV BND1      y[2,0]  
 BV BND1      y[2,1]  
 BV BND1      u[0,1]  
 BV BND1      u[0,2]  
 BV BND1      u[1,0]  
 BV BND1      u[1,2]  
 BV BND1      u[2,0]  
 BV BND1      u[2,1]  
 BV BND1      r[0,1]  
 BV BND1      r[0,2]  
 BV BND1      r[1,0]  
 BV BND1      r[1,2]  
 BV BND1      r[2,0]  
 BV BND1      r[2,1]  
ENDATA
