robust/generate/spp_dkp_Lefebvre_et_al_2026/src/shortest_path_3_7.kp
49
69

[3.46 2.84 10.65 10.25 7.86 6.52]

[69 2 66 18 4 68]
